#=======================================================
# FHI-aims file: ./Si_Bulks/2/geometry.in
# Created using the Atomic Simulation Environment (ASE)
# Fri Jan 12 18:23:01 2024
#=======================================================
lattice_vector 4.0530090000000003 0.0000000000000000 0.0000000000000000 
lattice_vector 1.9357089999999999 3.2305480000000002 0.0000000000000000 
lattice_vector 1.8572439999999999 0.9630280000000000 3.0322330000000002 
atom 0.0000000000000000 0.0000000000000000 0.0000000000000000 Si
atom 1.9307955900000000 1.1147449000000000 0.7882441300000000 Si
