#=======================================================
# FHI-aims file: ./Si_Bulks/140/geometry.in
# Created using the Atomic Simulation Environment (ASE)
# Fri Jan 12 18:23:01 2024
#=======================================================
lattice_vector 5.4112169999999997 5.4112140000000002 -0.0003640000000000 
lattice_vector -0.0005160000000000 5.4113660000000001 5.4113280000000001 
lattice_vector 5.4113730000000002 -0.0005200000000000 5.4113319999999998 
atom -0.0115701600000000 -0.0118624100000000 0.0298398700000000 Si
atom 1.3584844899999999 1.3417816300000001 1.3788814899999999 Si
atom 2.7121442299999998 -0.0460702900000000 2.7385693400000002 Si
atom 4.1077732400000002 1.3348961699999999 4.0556975000000000 Si
atom 0.0644552700000000 2.7292658599999999 2.7664972600000000 Si
atom 1.3991544899999999 4.0871748800000001 4.1602227799999998 Si
atom 2.7658921400000001 2.7051381900000000 5.4011164799999998 Si
atom 4.0824580700000004 4.0689427399999998 6.7589099499999996 Si
atom 2.6474058100000000 2.6718065800000002 -0.0566047500000000 Si
atom 3.9971681600000002 4.0139202000000003 1.2828974500000001 Si
atom 5.3610114800000002 2.7108600699999998 2.6762633199999999 Si
atom 6.6345247199999999 4.0609931000000001 4.0107945999999997 Si
atom 2.6901771700000001 5.4122441099999996 2.6837281900000001 Si
atom 4.1288889600000003 6.7704631600000003 4.0008556999999998 Si
atom 5.3998531200000004 5.4662229000000000 5.4166716499999996 Si
atom 6.7728463999999997 6.7948315199999998 6.8074638500000004 Si
