#=======================================================
# FHI-aims file: ./Si_Bulks/6/geometry.in
# Created using the Atomic Simulation Environment (ASE)
# Fri Jan 12 18:23:01 2024
#=======================================================
lattice_vector 3.8542679999999998 0.0000000000000000 0.0000000000000000 
lattice_vector 1.8567149999999999 3.3249680000000001 0.0000000000000000 
lattice_vector 1.8315640000000000 1.1100810000000001 3.2430550000000000 
atom 0.0000000000000000 0.0000000000000000 0.0000000000000000 Si
atom 1.9307970000000001 1.1147460700000000 0.7882439800000000 Si
