#=======================================================
# FHI-aims file: ./Si_Bulks/1/geometry.in
# Created using the Atomic Simulation Environment (ASE)
# Fri Jan 12 18:23:01 2024
#=======================================================
lattice_vector 3.8674510000000000 0.0000000000000000 0.0000000000000000 
lattice_vector 1.9034270000000000 3.2409240000000001 0.0000000000000000 
lattice_vector 1.7239329999999999 1.0673530000000000 3.2566660000000001 
atom 0.0000000000000000 0.0000000000000000 0.0000000000000000 Si
atom 1.9307966999999999 1.1147465599999999 0.7882434400000000 Si
