#=======================================================
# FHI-aims file: ./Si_Bulks/300/geometry.in
# Created using the Atomic Simulation Environment (ASE)
# Fri Jan 12 18:23:01 2024
#=======================================================
lattice_vector 5.1079710000000000 5.1080189999999996 0.0003680000000000 
lattice_vector 0.0005350000000000 5.1078520000000003 5.1080139999999998 
lattice_vector 5.1078710000000003 0.0004670000000000 5.1080819999999996 
atom 0.0083372300000000 0.1708130700000000 0.0266684200000000 Si
atom 1.3132866900000000 1.2052526600000000 1.5196554400000000 Si
atom 2.6355706200000002 -0.2231548100000000 2.6284084200000000 Si
atom 3.7507361900000000 1.3462881200000001 3.7281639300000000 Si
atom 0.0099434500000000 2.6341190299999999 2.6052365399999999 Si
atom 1.3429691300000000 3.9890871200000002 3.8572757900000001 Si
atom 2.4563795000000002 2.5126386200000002 5.1282493200000001 Si
atom 3.9084344500000001 3.8170535399999999 6.2261776900000001 Si
atom 2.2788042800000001 2.4123284599999999 -0.0628782700000000 Si
atom 3.8190011199999998 3.7041547700000002 0.9127048300000000 Si
atom 5.0395945800000002 2.5980038599999999 2.4589821399999998 Si
atom 6.2335560000000001 3.8748098700000000 3.8677786099999998 Si
atom 2.8153026400000001 4.9305804599999998 2.5138141599999999 Si
atom 3.7939213100000000 6.4268238699999998 3.8665439699999999 Si
atom 5.1689256700000001 5.3271068000000001 5.1968777900000003 Si
atom 6.5069842099999997 6.3556466599999997 6.6085284199999998 Si
