#=======================================================
# FHI-aims file: ./Si_Bulks/5/geometry.in
# Created using the Atomic Simulation Environment (ASE)
# Fri Jan 12 18:23:01 2024
#=======================================================
lattice_vector 3.9937849999999999 0.0000000000000000 0.0000000000000000 
lattice_vector 1.8996350000000000 3.3169979999999999 0.0000000000000000 
lattice_vector 1.9353590000000001 1.1924850000000000 3.1578979999999999 
atom 0.0000000000000000 0.0000000000000000 0.0000000000000000 Si
atom 1.9307969700000001 1.1147455700000000 0.7882429200000000 Si
