#=======================================================
# FHI-aims file: ./Si_Bulks/4/geometry.in
# Created using the Atomic Simulation Environment (ASE)
# Fri Jan 12 18:23:01 2024
#=======================================================
lattice_vector 4.0719190000000003 0.0000000000000000 0.0000000000000000 
lattice_vector 1.8917500000000000 3.3282729999999998 0.0000000000000000 
lattice_vector 1.8553800000000000 1.1885040000000000 3.0724200000000002 
atom 0.0000000000000000 0.0000000000000000 0.0000000000000000 Si
atom 1.9307967600000000 1.1147453700000001 0.7882447100000000 Si
