#=======================================================
# FHI-aims file: ./Si_Bulks/0/geometry.in
# Created using the Atomic Simulation Environment (ASE)
# Fri Jan 12 18:23:01 2024
#=======================================================
lattice_vector 3.9355140000000000 0.0000000000000000 0.0000000000000000 
lattice_vector 1.9670740000000000 3.2565740000000001 0.0000000000000000 
lattice_vector 1.7283750000000000 1.0856230000000000 3.0619170000000002 
atom 0.0000000000000000 0.0000000000000000 0.0000000000000000 Si
atom 1.9307974800000001 1.1147462500000000 0.7882446000000000 Si
