#=======================================================
# FHI-aims file: ./Si_Bulks/3/geometry.in
# Created using the Atomic Simulation Environment (ASE)
# Fri Jan 12 18:23:01 2024
#=======================================================
lattice_vector 3.7929270000000002 0.0000000000000000 0.0000000000000000 
lattice_vector 1.8270850000000001 3.3569049999999998 0.0000000000000000 
lattice_vector 1.6787810000000001 1.0501339999999999 3.2685309999999999 
atom 0.0000000000000000 0.0000000000000000 0.0000000000000000 Si
atom 1.9307955200000000 1.1147450200000000 0.7882454700000000 Si
