#=======================================================
# FHI-aims file: ./Si_Bulks/7/geometry.in
# Created using the Atomic Simulation Environment (ASE)
# Fri Jan 12 18:23:01 2024
#=======================================================
lattice_vector 3.7362899999999999 0.0000000000000000 0.0000000000000000 
lattice_vector 1.9087860000000001 3.3009780000000002 0.0000000000000000 
lattice_vector 2.0314380000000001 1.1075420000000000 3.1284809999999998 
atom 0.0000000000000000 0.0000000000000000 0.0000000000000000 Si
atom 1.9106694799999999 1.1031253700000001 0.7800273000000000 Si
